myproject/instances/20nodes/rnd49_20.tsp
NAME : rnd49_20.tsp
TYPE : TSP
DIMENSION : 20
EDGE_WEIGHT_TYPE : EUC_2D
NODE_COORD_SECTION
1 375 968
2 471 972
3 506 245
4 572 257
5 382 411
6 710 690
7 451 661
8 918 718
9 83 739
10 925 41
11 704 407
12 145 837
13 191 987
14 472 920
15 278 931
16 822 688
17 331 442
18 940 256
19 453 950
20 353 288
