myproject/instances/20nodes/rnd49_20.opt.tour
NAME : rnd49_20.tsp.tsp.opt.tour
TYPE : TOUR
DIMENSION : 20
TOUR_SECTION
1
15
13
12
9
17
5
20
3
4
10
18
11
8
16
6
7
14
19
2
-1